sat
(:added-eqs                   7561
 :arith-bound-propagations-lp 21852
 :arith-conflicts             141
 :arith-fixed-eqs             2367
 :arith-lower                 34938
 :arith-make-feasible         14440
 :arith-max-columns           870
 :arith-max-rows              441
 :arith-offset-eqs            5228
 :arith-upper                 24519
 :binary-propagations         39459
 :conflicts                   276
 :decisions                   9780
 :del-clause                  50
 :final-checks                1
 :max-memory                  29.80
 :memory                      21.00
 :minimized-lits              412
 :mk-bool-var                 3799
 :mk-clause                   1122
 :mk-clause-binary            5291
 :num-allocs                  45268993
 :num-checks                  1
 :propagations                47918
 :restarts                    2
 :rlimit-count                1155461
 :solve-eqs-elim-vars         355
 :solve-eqs-steps             2203
 :time                        3.07
 :total-time                  3.18)
